# Solution for model r5_t36_m3_5 Batch Number: 3
# Finished Task: 35 / 36
# Makespan: 587.0, Total Distance: 780.0, Total Time: 20.0257
# R O S F Batch
0 0 12 0.0 0.0 -1
1 1 26 0.0 0.0 -1
2 2 8 0.0 0.0 -1
3 3 34 0.0 0.0 -1
4 4 36 0.0 0.0 -1
5 4 35 266.0 297.0 0
6 2 -1 464.0 487.0 2
7 4 29 478.0 516.0 2
8 2 28 152.0 178.0 0
9 0 16 345.0 365.0 1
10 1 20 277.0 310.0 0
11 1 30 464.0 502.0 2
12 0 18 141.0 166.0 0
13 1 10 193.0 226.0 0
14 3 -1 550.0 577.0 2
15 4 33 157.0 196.0 0
16 0 37 389.0 427.0 2
17 1 13 152.0 175.0 0
18 0 9 301.0 323.0 0
19 3 31 311.0 337.0 0
20 1 39 310.0 337.0 0
21 1 11 424.0 449.0 1
22 2 24 282.0 310.0 0
23 2 6 415.0 444.0 2
24 2 32 320.0 358.0 1
25 4 7 411.0 437.0 2
26 1 17 115.0 141.0 0
27 3 14 482.0 505.0 1
28 2 22 241.0 266.0 0
29 4 -1 526.0 548.0 2
30 1 -1 515.0 553.0 2
31 3 40 337.0 367.0 1
32 2 23 369.0 396.0 2
33 4 5 215.0 245.0 0
34 3 19 261.0 297.0 0
35 4 25 352.0 375.0 2
36 4 15 80.0 118.0 0
37 0 -1 553.0 587.0 2
38 -1 -1 -1.0 -1.0 1
39 1 21 355.0 376.0 1
40 3 27 391.0 428.0 1
